51 6
12 12 13 11 10 11
1 0 0 0 0 0 0 3 2 3 4
1 8 8 9 4 5 9 4 5 6 7 8
10 1 6 1 10 1 2 4 51 6 7 8
1 5 10 9 4 2 10 4 5 6 7 8
6 7 10 7 2 8 1 4 9 10 11 12
1 7 2 9 3 8 1 4 9 10 11 12
1 9 3 1 5 3 1 4 9 10 11 12
1 9 6 6 1 5 1 3 10 11 12
1 7 7 9 8 4 10 3 14 15 16
2 7 5 5 1 6 7 4 13 14 15 16
9 10 2 5 3 10 6 4 13 14 15 16
1 1 2 5 10 2 6 4 13 14 15 16
1 3 5 1 7 2 10 3 18 19 20
2 3 7 8 5 2 6 2 18 19
1 7 3 4 2 4 7 3 17 19 20
4 1 10 10 7 3 1 2 17 18
8 3 6 6 9 3 1 3 21 23 24
2 10 9 5 3 7 7 4 21 22 23 24
1 6 10 3 8 2 5 3 21 23 24
1 9 3 8 9 10 3 3 21 22 24
8 7 6 3 7 9 8 3 25 26 28
5 3 6 4 1 3 2 4 25 26 27 28
4 8 2 6 4 6 1 4 25 26 27 28
5 2 9 3 4 4 10 4 25 26 27 28
5 2 10 4 6 8 10 4 29 30 31 32
3 2 1 9 2 7 8 3 29 30 32
1 10 9 10 3 1 3 3 29 30 32
1 3 6 6 4 3 3 4 29 30 31 32
4 9 2 9 2 6 1 3 33 34 36
1 6 10 1 5 6 9 4 33 34 35 36
1 9 7 9 4 8 7 4 33 34 35 36
9 9 3 2 8 2 5 4 33 34 35 36
1 4 5 2 4 7 4 3 38 39 40
8 7 4 6 8 8 4 4 37 38 39 40
3 6 1 5 7 7 8 3 38 39 40
1 6 5 8 5 2 9 4 37 38 39 40
6 3 1 7 7 1 2 4 41 42 43 44
6 9 3 7 5 6 8 4 41 42 43 44
6 3 10 7 2 4 7 3 41 42 44
10 5 10 8 8 7 4 4 41 42 43 44
1 9 9 6 3 2 1 3 46 47 48
1 9 10 7 10 2 4 3 45 47 48
10 1 5 5 7 5 9 3 45 47 48
4 4 4 9 5 3 10 3 45 47 48
9 2 4 8 3 1 6 1 50
2 1 6 7 1 3 10 1 50
1 4 7 4 9 4 1 1 50
1 10 5 4 10 5 1 1 49
7 6 3 9 10 1 9 1 51
6 10 8 10 3 6 3 1 51
0 0 0 0 0 0 0 0
